Nb of jobs, Nb of Machines, Time seed, Machine seed, Upper bound, Lower bound
5,5,-1,-1,-1,-1
Times
57,55,74,75,7
25,75,61,9,23
24,80,73,3,22
51,98,93,25,54
38,9,59,1,76
Machines
4,2,5,1,3
2,1,5,4,3
1,3,5,4,2
5,2,4,3,1
4,2,5,1,3
